benchmarks/bfuzz0/1106517188361859532482575801033310077.smt2
(set-logic QF_FP)
(declare-const x0 (_ FloatingPoint 11 53))
(declare-const x1 (_ FloatingPoint 11 53))
(declare-const x2 (_ FloatingPoint 11 53))
(declare-const x3 (_ FloatingPoint 11 53))
(declare-const x4 (_ FloatingPoint 11 53))
(assert (fp.gt (fp.sub RNE x0 x1) (fp.div RNE x1 x3)))
(assert (fp.geq (fp.div RNE x1 x0) (fp.div RNE x1 x1)))
(assert (fp.geq (fp.mul RNE x4 x4) (fp.sub RNE x0 x0)))
(assert (fp.eq (fp.mul RNE x3 x3) (fp.mul RNE x1 x4)))
(check-sat)
