db/data/1106517188361859532482575801033310077.z3.out
-------------------
2500.084637404
